\ Model Classical_SVM
\ LP format - for model browsing. Use MPS format to capture full model detail.
Minimize
 [ w0 ^2 + w1 ^2 + w2 ^2 ] / 2 
Subject To
 R0: w0 + 5.1 w1 + 3.5 w2 <= -1
 R1: w0 + 4.9 w1 + 3 w2 <= -1
 R2: w0 + 4.7 w1 + 3.2 w2 <= -1
 R3: w0 + 4.6 w1 + 3.1 w2 <= -1
 R4: w0 + 5 w1 + 3.6 w2 <= -1
 R5: w0 + 5.4 w1 + 3.9 w2 <= -1
 R6: w0 + 4.6 w1 + 3.4 w2 <= -1
 R7: w0 + 5 w1 + 3.4 w2 <= -1
 R8: w0 + 4.4 w1 + 2.9 w2 <= -1
 R9: w0 + 4.9 w1 + 3.1 w2 <= -1
 R10: w0 + 5.4 w1 + 3.7 w2 <= -1
 R11: w0 + 4.8 w1 + 3.4 w2 <= -1
 R12: w0 + 4.8 w1 + 3 w2 <= -1
 R13: w0 + 4.3 w1 + 3 w2 <= -1
 R14: w0 + 5.8 w1 + 4 w2 <= -1
 R15: w0 + 5.7 w1 + 4.4 w2 <= -1
 R16: w0 + 5.4 w1 + 3.9 w2 <= -1
 R17: w0 + 5.1 w1 + 3.5 w2 <= -1
 R18: w0 + 5.7 w1 + 3.8 w2 <= -1
 R19: w0 + 5.1 w1 + 3.8 w2 <= -1
 R20: w0 + 5.4 w1 + 3.4 w2 <= -1
 R21: w0 + 5.1 w1 + 3.7 w2 <= -1
 R22: w0 + 4.6 w1 + 3.6 w2 <= -1
 R23: w0 + 5.1 w1 + 3.3 w2 <= -1
 R24: w0 + 4.8 w1 + 3.4 w2 <= -1
 R25: w0 + 5 w1 + 3 w2 <= -1
 R26: w0 + 5 w1 + 3.4 w2 <= -1
 R27: w0 + 5.2 w1 + 3.5 w2 <= -1
 R28: w0 + 5.2 w1 + 3.4 w2 <= -1
 R29: w0 + 4.7 w1 + 3.2 w2 <= -1
 R30: w0 + 4.8 w1 + 3.1 w2 <= -1
 R31: w0 + 5.4 w1 + 3.4 w2 <= -1
 R32: w0 + 5.2 w1 + 4.1 w2 <= -1
 R33: w0 + 5.5 w1 + 4.2 w2 <= -1
 R34: w0 + 4.9 w1 + 3.1 w2 <= -1
 R35: w0 + 5 w1 + 3.2 w2 <= -1
 R36: w0 + 5.5 w1 + 3.5 w2 <= -1
 R37: w0 + 4.9 w1 + 3.6 w2 <= -1
 R38: w0 + 4.4 w1 + 3 w2 <= -1
 R39: w0 + 5.1 w1 + 3.4 w2 <= -1
 R40: w0 + 5 w1 + 3.5 w2 <= -1
 R41: w0 + 4.5 w1 + 2.3 w2 <= -1
 R42: w0 + 4.4 w1 + 3.2 w2 <= -1
 R43: w0 + 5 w1 + 3.5 w2 <= -1
 R44: w0 + 5.1 w1 + 3.8 w2 <= -1
 R45: w0 + 4.8 w1 + 3 w2 <= -1
 R46: w0 + 5.1 w1 + 3.8 w2 <= -1
 R47: w0 + 4.6 w1 + 3.2 w2 <= -1
 R48: w0 + 5.3 w1 + 3.7 w2 <= -1
 R49: w0 + 5 w1 + 3.3 w2 <= -1
 R50: - w0 - 6.3 w1 - 3.3 w2 <= -1
 R51: - w0 - 5.8 w1 - 2.7 w2 <= -1
 R52: - w0 - 7.1 w1 - 3 w2 <= -1
 R53: - w0 - 6.3 w1 - 2.9 w2 <= -1
 R54: - w0 - 6.5 w1 - 3 w2 <= -1
 R55: - w0 - 7.6 w1 - 3 w2 <= -1
 R56: - w0 - 4.9 w1 - 2.5 w2 <= -1
 R57: - w0 - 7.3 w1 - 2.9 w2 <= -1
 R58: - w0 - 6.7 w1 - 2.5 w2 <= -1
 R59: - w0 - 7.2 w1 - 3.6 w2 <= -1
 R60: - w0 - 6.5 w1 - 3.2 w2 <= -1
 R61: - w0 - 6.4 w1 - 2.7 w2 <= -1
 R62: - w0 - 6.8 w1 - 3 w2 <= -1
 R63: - w0 - 5.7 w1 - 2.5 w2 <= -1
 R64: - w0 - 5.8 w1 - 2.8 w2 <= -1
 R65: - w0 - 6.4 w1 - 3.2 w2 <= -1
 R66: - w0 - 6.5 w1 - 3 w2 <= -1
 R67: - w0 - 7.7 w1 - 3.8 w2 <= -1
 R68: - w0 - 7.7 w1 - 2.6 w2 <= -1
 R69: - w0 - 6 w1 - 2.2 w2 <= -1
 R70: - w0 - 6.9 w1 - 3.2 w2 <= -1
 R71: - w0 - 5.6 w1 - 2.8 w2 <= -1
 R72: - w0 - 7.7 w1 - 2.8 w2 <= -1
 R73: - w0 - 6.3 w1 - 2.7 w2 <= -1
 R74: - w0 - 6.7 w1 - 3.3 w2 <= -1
 R75: - w0 - 7.2 w1 - 3.2 w2 <= -1
 R76: - w0 - 6.2 w1 - 2.8 w2 <= -1
 R77: - w0 - 6.1 w1 - 3 w2 <= -1
 R78: - w0 - 6.4 w1 - 2.8 w2 <= -1
 R79: - w0 - 7.2 w1 - 3 w2 <= -1
 R80: - w0 - 7.4 w1 - 2.8 w2 <= -1
 R81: - w0 - 7.9 w1 - 3.8 w2 <= -1
 R82: - w0 - 6.4 w1 - 2.8 w2 <= -1
 R83: - w0 - 6.3 w1 - 2.8 w2 <= -1
 R84: - w0 - 6.1 w1 - 2.6 w2 <= -1
 R85: - w0 - 7.7 w1 - 3 w2 <= -1
 R86: - w0 - 6.3 w1 - 3.4 w2 <= -1
 R87: - w0 - 6.4 w1 - 3.1 w2 <= -1
 R88: - w0 - 6 w1 - 3 w2 <= -1
 R89: - w0 - 6.9 w1 - 3.1 w2 <= -1
 R90: - w0 - 6.7 w1 - 3.1 w2 <= -1
 R91: - w0 - 6.9 w1 - 3.1 w2 <= -1
 R92: - w0 - 5.8 w1 - 2.7 w2 <= -1
 R93: - w0 - 6.8 w1 - 3.2 w2 <= -1
 R94: - w0 - 6.7 w1 - 3.3 w2 <= -1
 R95: - w0 - 6.7 w1 - 3 w2 <= -1
 R96: - w0 - 6.3 w1 - 2.5 w2 <= -1
 R97: - w0 - 6.5 w1 - 3 w2 <= -1
 R98: - w0 - 6.2 w1 - 3.4 w2 <= -1
 R99: - w0 - 5.9 w1 - 3 w2 <= -1
Bounds
 w0 free
 w1 free
 w2 free
End
